assets/logs/13_12x12_clingo/13_12x12_clingo.solution.log

-------------------------------------------------
|  0|116|  0| 80|122| 76| 22| 53|126| 45| 71| 49|
-------------------------------------------------
|  0| 82|120| 74| 20| 95|124|103| 73| 51|128| 43|
-------------------------------------------------
|118| 13|114| 97| 78|101| 18| 24| 55|105| 47| 69|
-------------------------------------------------
| 84|  0| 72| 11|112| 26| 93|  7| 16| 75| 41|130|
-------------------------------------------------
| 70|  0| 15| 52| 99|  9| 14| 57|107|132| 67|  1|
-------------------------------------------------
| 17| 86| 68|110| 28|  0| 48| 91|  5| 59| 77| 39|
-------------------------------------------------
|  2| 64| 54| 88| 50| 12| 30| 61|134|109|  3| 65|
-------------------------------------------------
| 56| 19|  0| 66|108| 90| 89| 46| 32| 63| 37| 79|
-------------------------------------------------
| 62|  4| 58| 92| 10|125| 34|136| 87|  0|111|117|
-------------------------------------------------
| 21| 98|  8|102| 36|106| 29|131| 44|115| 81| 35|
-------------------------------------------------
|  6| 60| 94| 25|127| 40|123| 85| 31|133|119|113|
-------------------------------------------------
| 96| 23|100| 38|104| 27|129| 42|121| 83| 33|135|
-------------------------------------------------

| n = 12 | k = 4 | coverage = 139, 96.52777777777777%
 Time 300.001
 Name 13_12x12_clingo

