assets/logs/13_12x12_clingo/13_12x12_clingo.log
clingo version 5.4.0
Reading from ...s/logs/13_12x12_clingo/knights_tour.lp ...
Solving...
Answer: 1
occ(1,5,2) occ(1,6,6) occ(1,2,1) occ(1,9,10) occ(2,5,12) occ(3,7,1) coverage(6)
Optimization: -6
Answer: 2
occ(1,5,2) occ(1,6,6) occ(1,2,1) occ(1,9,10) occ(2,5,12) occ(3,7,1) coverage(7) occ(6,5,10) occ(4,7,11)
Optimization: -7
Answer: 3
occ(1,5,2) occ(1,6,6) occ(1,2,1) occ(1,9,10) occ(2,5,12) occ(3,7,1) coverage(54) occ(10,1,6) occ(16,1,7) occ(20,1,11) occ(28,1,9) occ(32,1,5) occ(42,1,4) occ(48,1,3) occ(52,1,1) occ(8,2,8) occ(12,2,4) occ(18,2,9) occ(26,2,11) occ(30,2,7) occ(34,2,3) occ(40,2,2) occ(44,2,6) occ(47,2,10) occ(4,3,11) occ(14,3,6) occ(22,3,10) occ(36,3,1) occ(46,3,4) occ(49,3,12) occ(50,3,2) occ(6,4,9) occ(24,4,12) occ(38,4,3) occ(45,4,11) occ(51,5,11) occ(79,5,3) occ(85,5,6) occ(99,5,7) occ(37,6,7) occ(43,6,12) occ(81,6,5) occ(87,6,4) occ(101,6,9) occ(127,6,2) occ(35,7,5) occ(39,7,9) occ(53,7,12) occ(77,7,2) occ(83,7,7) occ(97,7,6) occ(125,7,4) occ(13,8,7) occ(33,8,3) occ(41,8,11) occ(89,8,5) occ(95,8,4) occ(103,8,8) occ(123,8,2) occ(129,8,1) occ(5,9,2) occ(11,9,5) occ(15,9,9) occ(31,9,1) occ(55,9,11) occ(75,9,3) occ(93,9,6) occ(117,9,8) occ(121,9,4) occ(9,10,3) occ(17,10,11) occ(57,10,9) occ(69,10,1) occ(91,10,4) occ(105,10,7) occ(115,10,10) occ(119,10,6) occ(131,10,2) occ(143,10,12) occ(7,11,1) occ(21,11,10) occ(25,11,6) occ(29,11,2) occ(59,11,11) occ(63,11,7) occ(67,11,3) occ(73,11,4) occ(109,11,8) occ(113,11,12) occ(135,11,5) occ(139,11,9) occ(19,12,12) occ(23,12,8) occ(27,12,4) occ(61,12,9) occ(65,12,5) occ(71,12,2) occ(107,12,6) occ(111,12,10) occ(133,12,3) occ(137,12,7) occ(141,12,11)
Optimization: -54
Answer: 4
occ(1,5,2) occ(1,6,6) occ(1,2,1) occ(1,9,10) occ(2,5,12) occ(3,7,1) coverage(115) occ(32,1,7) occ(38,1,4) occ(99,1,1) occ(105,1,6) occ(109,1,10) occ(122,1,8) occ(128,1,11) occ(6,2,9) occ(36,2,6) occ(42,2,7) occ(97,2,3) occ(103,2,4) occ(107,2,8) occ(111,2,12) occ(112,2,2) occ(124,2,10) occ(4,3,11) occ(30,3,6) occ(34,3,8) occ(40,3,5) occ(52,3,3) occ(65,3,10) occ(96,3,7) occ(101,3,2) occ(114,3,4) occ(120,3,9) occ(126,3,12) occ(8,4,10) occ(28,4,8) occ(44,4,6) occ(50,4,1) occ(54,4,5) occ(63,4,12) occ(94,4,9) occ(95,4,2) occ(110,4,3) occ(113,4,11) occ(118,4,7) occ(10,5,8) occ(23,5,9) occ(48,5,3) occ(61,5,10) occ(67,5,11) occ(76,5,7) occ(98,5,6) occ(108,5,1) occ(116,5,5) occ(5,6,3) occ(12,6,10) occ(21,6,11) occ(25,6,7) occ(26,6,9) occ(39,6,2) occ(46,6,5) occ(56,6,4) occ(92,6,8) occ(93,6,1) occ(19,7,9) occ(41,7,4) occ(59,7,11) occ(60,7,7) occ(69,7,10) occ(74,7,8) occ(78,7,6) occ(91,7,3) occ(100,7,5) occ(106,7,2) occ(7,8,2) occ(14,8,11) occ(24,8,10) occ(27,8,6) occ(37,8,1) occ(57,8,9) occ(58,8,5) occ(71,8,12) occ(80,8,4) occ(90,8,7) occ(102,8,3) occ(17,9,8) occ(22,9,12) occ(29,9,4) occ(43,9,3) occ(55,9,11) occ(62,9,6) occ(72,9,7) occ(84,9,5) occ(88,9,9) occ(89,9,2) occ(104,9,1) occ(9,10,1) occ(16,10,10) occ(31,10,6) occ(35,10,2) occ(45,10,5) occ(64,10,4) occ(73,10,11) occ(79,10,8) occ(82,10,3) occ(86,10,7) occ(11,11,3) occ(15,11,7) occ(20,11,11) occ(33,11,4) occ(49,11,8) occ(53,11,12) occ(66,11,2) occ(70,11,6) occ(77,11,10) occ(83,11,5) occ(87,11,1) occ(13,12,5) occ(18,12,9) occ(47,12,6) occ(51,12,10) occ(68,12,4) occ(75,12,12) occ(81,12,7) occ(85,12,3)
Optimization: -115
Answer: 5
occ(1,5,2) occ(1,6,6) occ(1,2,1) occ(1,9,10) occ(2,5,12) occ(3,7,1) coverage(124) occ(48,1,7) occ(74,1,4) occ(78,1,2) occ(99,1,1) occ(105,1,6) occ(109,1,10) occ(113,1,12) occ(117,1,8) occ(120,1,9) occ(6,2,9) occ(46,2,5) occ(52,2,6) occ(72,2,2) occ(97,2,3) occ(103,2,4) occ(107,2,8) occ(115,2,10) occ(118,2,7) occ(122,2,11) occ(123,2,12) occ(8,3,7) occ(42,3,6) occ(50,3,8) occ(65,3,10) occ(70,3,4) occ(76,3,3) occ(80,3,1) occ(84,3,5) occ(101,3,2) occ(111,3,11) occ(119,3,9) occ(4,4,10) occ(44,4,4) occ(54,4,5) occ(63,4,12) occ(82,4,3) occ(86,4,7) occ(95,4,2) occ(96,4,8) occ(110,4,1) occ(116,4,6) occ(121,4,11) occ(10,5,8) occ(39,5,9) occ(40,5,7) occ(61,5,10) occ(67,5,11) occ(68,5,5) occ(98,5,6) occ(108,5,3) occ(114,5,4) occ(5,6,3) occ(12,6,10) occ(37,6,7) occ(38,6,5) occ(56,6,4) occ(57,6,11) occ(88,6,8) occ(93,6,1) occ(94,6,9) occ(112,6,2) occ(33,7,4) occ(41,7,8) occ(53,7,12) occ(59,7,9) occ(60,7,7) occ(66,7,6) occ(69,7,10) occ(91,7,3) occ(92,7,11) occ(100,7,5) occ(106,7,2) occ(7,8,2) occ(14,8,11) occ(35,8,6) occ(36,8,4) occ(55,8,10) occ(58,8,5) occ(64,8,8) occ(71,8,12) occ(81,8,7) occ(90,8,9) occ(102,8,3) occ(9,9,4) occ(17,9,8) occ(18,9,12) occ(31,9,3) occ(32,9,7) occ(43,9,9) occ(51,9,11) occ(62,9,6) occ(83,9,5) occ(89,9,2) occ(104,9,1) occ(16,10,10) occ(19,10,6) occ(28,10,4) occ(29,10,1) occ(34,10,5) occ(45,10,7) occ(49,10,9) occ(73,10,11) occ(79,10,8) occ(85,10,3) occ(11,11,5) occ(15,11,9) occ(20,11,11) occ(21,11,8) occ(24,11,7) occ(25,11,4) occ(30,11,6) occ(77,11,10) occ(87,11,1) occ(13,12,7) occ(22,12,9) occ(23,12,6) occ(26,12,5) occ(27,12,2) occ(47,12,8) occ(75,12,12)
Optimization: -124
Answer: 6
occ(1,5,2) occ(1,6,6) occ(1,2,1) occ(1,9,10) occ(2,5,12) occ(3,7,1) coverage(129) occ(16,1,9) occ(21,1,4) occ(25,1,8) occ(35,1,5) occ(41,1,2) occ(45,1,6) occ(121,1,10) occ(127,1,11) occ(13,2,5) occ(14,2,11) occ(19,2,2) occ(23,2,6) occ(27,2,10) occ(31,2,8) occ(37,2,3) occ(42,2,7) occ(43,2,4) occ(117,2,9) occ(123,2,12) occ(15,3,3) occ(18,3,8) occ(22,3,4) occ(33,3,6) occ(34,3,12) occ(39,3,1) occ(44,3,9) occ(47,3,5) occ(93,3,2) occ(115,3,7) occ(119,3,11) occ(125,3,10) occ(11,4,4) occ(12,4,12) occ(17,4,1) occ(20,4,6) occ(29,4,9) occ(32,4,10) occ(40,4,8) occ(46,4,7) occ(49,4,3) occ(87,4,2) occ(97,4,5) occ(10,5,10) occ(24,5,5) occ(30,5,8) occ(36,5,11) occ(48,5,9) occ(85,5,4) occ(91,5,1) occ(95,5,3) occ(99,5,7) occ(113,5,6) occ(4,6,10) occ(8,6,12) occ(9,6,5) occ(26,6,7) occ(38,6,9) occ(50,6,11) occ(51,6,4) occ(83,6,2) occ(89,6,3) occ(96,6,8) occ(7,7,3) occ(28,7,9) occ(77,7,2) occ(80,7,7) occ(94,7,6) occ(100,7,11) occ(101,7,8) occ(105,7,4) occ(110,7,12) occ(111,7,5) occ(6,8,11) occ(52,8,12) occ(53,8,3) occ(62,8,7) occ(78,8,5) occ(81,8,1) occ(98,8,9) occ(103,8,6) occ(107,8,2) occ(112,8,10) occ(5,9,2) occ(60,9,9) occ(64,9,5) occ(74,9,8) occ(75,9,1) occ(79,9,3) occ(82,9,6) occ(92,9,7) occ(102,9,12) occ(108,9,11) occ(109,9,4) occ(54,10,11) occ(55,10,2) occ(61,10,1) occ(65,10,3) occ(70,10,5) occ(71,10,4) occ(76,10,6) occ(86,10,7) occ(104,10,10) occ(114,10,9) occ(120,10,8) occ(124,10,12) occ(58,11,8) occ(59,11,3) occ(66,11,4) occ(67,11,1) occ(72,11,7) occ(73,11,2) occ(84,11,5) occ(90,11,6) occ(106,11,12) occ(116,11,11) occ(122,11,10) occ(128,11,9) occ(56,12,10) occ(57,12,1) occ(63,12,2) occ(68,12,6) occ(69,12,3) occ(88,12,8) occ(118,12,9) occ(126,12,11) occ(130,12,7)
Optimization: -129
Answer: 7
occ(1,5,2) occ(1,6,6) occ(1,2,1) occ(1,9,10) occ(2,5,12) occ(3,7,1) coverage(130) occ(6,1,10) occ(12,1,11) occ(16,1,7) occ(22,1,6) occ(32,1,1) occ(38,1,4) occ(53,1,2) occ(72,1,9) occ(8,2,12) occ(14,2,9) occ(18,2,5) occ(24,2,8) occ(27,2,6) occ(34,2,3) occ(40,2,2) occ(51,2,4) occ(54,2,7) occ(70,2,11) occ(92,2,10) occ(4,3,11) occ(10,3,10) occ(20,3,7) occ(26,3,6) occ(29,3,4) occ(30,3,2) occ(36,3,5) occ(44,3,3) occ(52,3,9) occ(55,3,1) occ(74,3,8) occ(90,3,12) occ(25,4,7) occ(28,4,4) occ(31,4,2) occ(42,4,1) occ(48,4,6) occ(49,4,5) occ(56,4,8) occ(57,4,3) occ(68,4,12) occ(76,4,10) occ(93,4,9) occ(94,4,11) occ(11,5,5) occ(23,5,9) occ(46,5,4) occ(50,5,8) occ(58,5,6) occ(88,5,11) occ(95,5,7) occ(98,5,10) occ(103,5,3) occ(9,6,3) occ(21,6,7) occ(33,6,1) occ(47,6,4) occ(59,6,2) occ(60,6,8) occ(66,6,11) occ(78,6,9) occ(91,6,10) occ(96,6,12) occ(105,6,5) occ(13,7,6) occ(45,7,2) occ(62,7,10) occ(80,7,11) occ(86,7,12) occ(97,7,8) occ(100,7,9) occ(101,7,4) occ(107,7,3) occ(111,7,7) occ(119,7,5) occ(7,8,4) occ(19,8,8) occ(35,8,2) occ(61,8,1) occ(64,8,12) occ(81,8,9) occ(84,8,10) occ(89,8,11) occ(99,8,6) occ(109,8,5) occ(117,8,3) occ(121,8,7) occ(5,9,2) occ(15,9,7) occ(43,9,1) occ(69,9,4) occ(82,9,12) occ(83,9,11) occ(102,9,8) occ(113,9,6) occ(123,9,9) occ(128,9,3) occ(17,10,9) occ(37,10,1) occ(41,10,3) occ(63,10,2) occ(79,10,8) occ(87,10,12) occ(104,10,10) occ(112,10,6) occ(115,10,4) occ(118,10,7) occ(125,10,11) occ(67,11,5) occ(71,11,3) occ(75,11,7) occ(85,11,10) occ(108,11,9) occ(114,11,4) occ(122,11,6) occ(126,11,2) occ(129,11,12) occ(39,12,2) occ(65,12,3) occ(73,12,5) occ(77,12,9) occ(106,12,11) occ(110,12,7) occ(116,12,6) occ(120,12,8) occ(124,12,4) occ(127,12,10)
Optimization: -130
Answer: 8
occ(1,5,2) occ(1,6,6) occ(1,2,1) occ(1,9,10) occ(2,5,12) occ(3,7,1) coverage(131) occ(6,1,10) occ(12,1,11) occ(16,1,7) occ(22,1,6) occ(32,1,1) occ(38,1,4) occ(53,1,2) occ(72,1,9) occ(8,2,12) occ(14,2,9) occ(18,2,5) occ(24,2,8) occ(27,2,6) occ(34,2,3) occ(40,2,2) occ(51,2,4) occ(54,2,7) occ(70,2,11) occ(92,2,10) occ(4,3,11) occ(10,3,10) occ(20,3,7) occ(26,3,6) occ(29,3,4) occ(30,3,2) occ(36,3,5) occ(44,3,3) occ(52,3,9) occ(55,3,1) occ(74,3,8) occ(90,3,12) occ(25,4,7) occ(28,4,4) occ(31,4,2) occ(42,4,1) occ(48,4,6) occ(49,4,5) occ(56,4,8) occ(57,4,3) occ(68,4,12) occ(76,4,10) occ(93,4,9) occ(94,4,11) occ(11,5,5) occ(23,5,9) occ(46,5,4) occ(50,5,8) occ(58,5,6) occ(88,5,11) occ(95,5,7) occ(98,5,10) occ(103,5,3) occ(9,6,3) occ(21,6,7) occ(33,6,1) occ(47,6,4) occ(59,6,2) occ(60,6,8) occ(66,6,11) occ(78,6,9) occ(91,6,10) occ(96,6,12) occ(105,6,5) occ(13,7,6) occ(45,7,2) occ(62,7,10) occ(80,7,11) occ(86,7,12) occ(97,7,8) occ(100,7,9) occ(101,7,4) occ(107,7,3) occ(111,7,7) occ(119,7,5) occ(7,8,4) occ(19,8,8) occ(35,8,2) occ(61,8,1) occ(64,8,12) occ(81,8,9) occ(84,8,10) occ(89,8,11) occ(99,8,6) occ(109,8,5) occ(117,8,3) occ(121,8,7) occ(5,9,2) occ(15,9,7) occ(43,9,1) occ(69,9,4) occ(82,9,12) occ(83,9,11) occ(102,9,8) occ(113,9,6) occ(123,9,9) occ(128,9,3) occ(17,10,9) occ(37,10,1) occ(41,10,3) occ(63,10,2) occ(79,10,8) occ(87,10,12) occ(104,10,10) occ(112,10,6) occ(115,10,4) occ(118,10,7) occ(125,10,11) occ(130,10,5) occ(67,11,5) occ(71,11,3) occ(75,11,7) occ(85,11,10) occ(108,11,9) occ(114,11,4) occ(122,11,6) occ(126,11,2) occ(129,11,12) occ(39,12,2) occ(65,12,3) occ(73,12,5) occ(77,12,9) occ(106,12,11) occ(110,12,7) occ(116,12,6) occ(120,12,8) occ(124,12,4) occ(127,12,10)
Optimization: -131
Answer: 9
occ(1,5,2) occ(1,6,6) occ(1,2,1) occ(1,9,10) occ(2,5,12) occ(3,7,1) coverage(132) occ(6,1,10) occ(12,1,11) occ(16,1,7) occ(22,1,6) occ(32,1,1) occ(38,1,4) occ(53,1,2) occ(72,1,9) occ(8,2,12) occ(14,2,9) occ(18,2,5) occ(24,2,8) occ(27,2,6) occ(34,2,3) occ(40,2,2) occ(51,2,4) occ(54,2,7) occ(70,2,11) occ(91,2,10) occ(4,3,11) occ(10,3,10) occ(20,3,7) occ(26,3,6) occ(29,3,4) occ(30,3,2) occ(36,3,5) occ(44,3,3) occ(52,3,9) occ(55,3,1) occ(74,3,8) occ(89,3,12) occ(25,4,7) occ(28,4,4) occ(31,4,2) occ(42,4,1) occ(48,4,6) occ(49,4,5) occ(56,4,8) occ(57,4,3) occ(68,4,12) occ(76,4,10) occ(93,4,9) occ(94,4,11) occ(11,5,5) occ(23,5,9) occ(46,5,4) occ(50,5,8) occ(58,5,6) occ(87,5,11) occ(95,5,7) occ(98,5,10) occ(103,5,3) occ(9,6,3) occ(21,6,7) occ(33,6,1) occ(47,6,4) occ(59,6,2) occ(60,6,8) occ(66,6,11) occ(78,6,9) occ(92,6,10) occ(96,6,12) occ(105,6,5) occ(13,7,6) occ(45,7,2) occ(62,7,10) occ(80,7,11) occ(85,7,12) occ(97,7,8) occ(100,7,9) occ(101,7,4) occ(107,7,3) occ(111,7,7) occ(119,7,5) occ(7,8,4) occ(19,8,8) occ(35,8,2) occ(61,8,1) occ(64,8,12) occ(82,8,9) occ(83,8,10) occ(90,8,11) occ(99,8,6) occ(109,8,5) occ(117,8,3) occ(121,8,7) occ(5,9,2) occ(15,9,7) occ(43,9,1) occ(69,9,4) occ(81,9,12) occ(102,9,8) occ(113,9,6) occ(123,9,9) occ(128,9,3) occ(131,9,11) occ(17,10,9) occ(37,10,1) occ(41,10,3) occ(63,10,2) occ(84,10,8) occ(88,10,12) occ(104,10,10) occ(112,10,6) occ(115,10,4) occ(118,10,7) occ(125,10,11) occ(130,10,5) occ(67,11,5) occ(71,11,3) occ(75,11,7) occ(79,11,11) occ(86,11,10) occ(108,11,9) occ(114,11,4) occ(122,11,6) occ(126,11,2) occ(129,11,12) occ(39,12,2) occ(65,12,3) occ(73,12,5) occ(77,12,9) occ(106,12,11) occ(110,12,7) occ(116,12,6) occ(120,12,8) occ(124,12,4) occ(127,12,10)
Optimization: -132
Answer: 10
occ(1,5,2) occ(1,6,6) occ(1,2,1) occ(1,9,10) occ(2,5,12) occ(3,7,1) coverage(133) occ(10,1,10) occ(14,1,6) occ(18,1,2) occ(23,1,3) occ(45,1,4) occ(83,1,11) occ(111,1,7) occ(125,1,8) occ(129,1,12) occ(132,1,1) occ(6,2,11) occ(12,2,8) occ(16,2,4) occ(25,2,5) occ(41,2,7) occ(47,2,2) occ(79,2,12) occ(113,2,9) occ(123,2,6) occ(127,2,10) occ(130,2,3) occ(8,3,9) occ(20,3,1) occ(21,3,2) occ(27,3,3) occ(43,3,5) occ(81,3,10) occ(85,3,12) occ(91,3,7) occ(109,3,8) occ(117,3,6) occ(121,3,4) occ(131,3,11) occ(4,4,10) occ(19,4,4) occ(22,4,3) occ(29,4,5) occ(39,4,6) occ(49,4,1) occ(77,4,11) occ(89,4,9) occ(115,4,8) occ(128,4,2) occ(17,5,6) occ(24,5,1) occ(31,5,7) occ(51,5,3) occ(82,5,4) occ(87,5,11) occ(93,5,8) occ(98,5,10) occ(107,5,9) occ(119,5,5) occ(15,6,4) occ(26,6,3) occ(33,6,5) occ(37,6,7) occ(75,6,10) occ(80,6,2) occ(96,6,8) occ(100,6,12) occ(101,6,9) occ(105,6,11) occ(126,6,1) occ(28,7,5) occ(53,7,2) occ(70,7,6) occ(73,7,8) occ(74,7,4) occ(84,7,3) occ(95,7,9) occ(99,7,7) occ(114,7,10) occ(13,8,3) occ(35,8,6) occ(78,8,1) occ(86,8,5) occ(94,8,7) occ(102,8,11) occ(103,8,10) occ(112,8,12) occ(116,8,8) occ(120,8,4) occ(124,8,2) occ(5,9,2) occ(30,9,4) occ(52,9,11) occ(55,9,1) occ(58,9,12) occ(68,9,7) occ(71,9,9) occ(72,9,5) occ(76,9,3) occ(97,9,8) occ(118,9,6) occ(11,10,2) occ(34,10,1) occ(42,10,7) occ(48,10,8) occ(56,10,10) occ(65,10,9) occ(66,10,5) occ(88,10,4) occ(92,10,6) occ(104,10,12) occ(110,10,11) occ(122,10,3) occ(7,11,1) occ(32,11,3) occ(38,11,4) occ(44,11,5) occ(50,11,10) occ(54,11,12) occ(57,11,2) occ(60,11,11) occ(61,11,6) occ(64,11,7) occ(69,11,8) occ(108,11,9) occ(9,12,3) occ(36,12,2) occ(40,12,6) occ(46,12,7) occ(59,12,4) occ(62,12,9) occ(63,12,8) occ(67,12,10) occ(90,12,5) occ(106,12,11)
Optimization: -133
Answer: 11
occ(1,5,2) occ(1,6,6) occ(1,2,1) occ(1,9,10) occ(2,5,12) occ(3,7,1) coverage(134) occ(8,1,11) occ(12,1,7) occ(16,1,5) occ(21,1,4) occ(43,1,1) occ(47,1,3) occ(70,1,8) occ(109,1,6) occ(113,1,10) occ(133,1,12) occ(10,2,9) occ(18,2,7) occ(23,2,2) occ(31,2,6) occ(41,2,3) occ(49,2,5) occ(68,2,10) occ(74,2,11) occ(108,2,4) occ(111,2,8) occ(115,2,12) occ(6,3,12) occ(14,3,6) occ(19,3,5) occ(22,3,10) occ(25,3,4) occ(29,3,8) occ(45,3,2) occ(72,3,9) occ(107,3,7) occ(131,3,11) occ(132,3,3) occ(4,4,10) occ(20,4,8) occ(27,4,6) occ(33,4,7) occ(39,4,2) occ(51,4,4) occ(66,4,9) occ(76,4,12) occ(106,4,3) occ(110,4,5) occ(117,4,11) occ(130,4,1) occ(17,5,4) occ(24,5,9) occ(35,5,5) occ(53,5,6) occ(60,5,11) occ(64,5,7) occ(104,5,1) occ(105,5,8) occ(112,5,3) occ(129,5,10) occ(26,6,7) occ(36,6,10) occ(37,6,3) occ(55,6,4) occ(62,6,9) occ(78,6,11) occ(98,6,5) occ(114,6,1) occ(119,6,12) occ(127,6,8) occ(128,6,2) occ(15,7,3) occ(28,7,5) occ(34,7,8) occ(58,7,12) occ(65,7,6) occ(92,7,11) occ(96,7,7) occ(102,7,2) occ(103,7,9) occ(121,7,10) occ(126,7,4) occ(13,8,1) occ(32,8,6) occ(38,8,11) occ(57,8,3) occ(67,8,8) occ(80,8,12) occ(84,8,10) occ(94,8,9) occ(100,8,4) occ(116,8,2) occ(125,8,7) occ(5,9,2) occ(30,9,4) occ(56,9,11) occ(59,9,5) occ(63,9,7) occ(83,9,1) occ(90,9,12) occ(93,9,6) occ(101,9,8) occ(123,9,9) occ(124,9,3) occ(11,10,2) occ(40,10,12) occ(48,10,6) occ(69,10,7) occ(73,10,5) occ(79,10,4) occ(82,10,11) occ(85,10,3) occ(86,10,9) occ(95,10,8) occ(99,10,10) occ(118,10,1) occ(7,11,3) occ(44,11,9) occ(50,11,8) occ(54,11,12) occ(61,11,6) occ(75,11,7) occ(81,11,2) occ(87,11,1) occ(88,11,11) occ(91,11,5) occ(122,11,4) occ(9,12,1) occ(42,12,11) occ(46,12,7) occ(52,12,10) occ(71,12,6) occ(77,12,5) occ(89,12,3) occ(97,12,9) occ(120,12,2)
Optimization: -134
Answer: 12
occ(1,5,2) occ(1,6,6) occ(1,2,1) occ(1,9,10) occ(2,5,12) occ(3,7,1) coverage(135) occ(23,1,7) occ(46,1,10) occ(50,1,12) occ(54,1,8) occ(77,1,6) occ(81,1,4) occ(117,1,2) occ(123,1,5) occ(127,1,9) occ(21,2,5) occ(44,2,12) occ(52,2,10) occ(75,2,4) occ(83,2,2) occ(96,2,6) occ(104,2,8) occ(121,2,3) occ(125,2,7) occ(129,2,11) occ(14,3,2) occ(19,3,7) occ(25,3,8) occ(48,3,11) occ(56,3,9) occ(70,3,12) occ(79,3,5) occ(98,3,4) occ(102,3,6) occ(106,3,10) occ(115,3,3) occ(119,3,1) occ(8,4,8) occ(12,4,4) occ(17,4,9) occ(27,4,6) occ(42,4,11) occ(72,4,10) occ(73,4,3) occ(85,4,1) occ(94,4,7) occ(113,4,5) occ(131,4,12) occ(10,5,6) occ(15,5,7) occ(16,5,3) occ(53,5,4) occ(58,5,8) occ(68,5,11) occ(71,5,1) occ(100,5,5) occ(108,5,9) occ(133,5,10) occ(6,6,9) occ(18,6,1) occ(29,6,5) occ(40,6,10) occ(49,6,7) occ(64,6,12) occ(69,6,3) occ(74,6,11) occ(87,6,2) occ(92,6,8) occ(111,6,4) occ(4,7,11) occ(13,7,6) occ(31,7,7) occ(38,7,12) occ(51,7,5) occ(55,7,3) occ(60,7,9) occ(65,7,2) occ(66,7,10) occ(89,7,4) occ(110,7,8) occ(20,8,2) occ(47,8,8) occ(57,8,1) occ(62,8,11) occ(67,8,4) occ(76,8,12) occ(90,8,7) occ(91,8,6) occ(109,8,5) occ(112,8,10) occ(130,8,9) occ(5,9,2) occ(11,9,5) occ(33,9,8) occ(36,9,11) occ(45,9,6) occ(59,9,3) occ(63,9,1) occ(88,9,9) occ(93,9,4) occ(114,9,12) occ(132,9,7) occ(9,10,3) occ(22,10,1) occ(35,10,10) occ(78,10,11) occ(86,10,7) occ(99,10,2) occ(103,10,4) occ(107,10,6) occ(122,10,5) occ(128,10,8) occ(134,10,9) occ(7,11,1) occ(26,11,4) occ(30,11,8) occ(34,11,12) occ(39,11,9) occ(43,11,5) occ(61,11,2) occ(82,11,10) occ(95,11,3) occ(116,11,11) occ(120,11,7) occ(126,11,6) occ(24,12,2) occ(28,12,6) occ(32,12,10) occ(37,12,11) occ(41,12,7) occ(80,12,12) occ(84,12,8) occ(97,12,1) occ(101,12,3) occ(105,12,5) occ(118,12,9) occ(124,12,4)
Optimization: -135
Answer: 13
occ(1,5,2) occ(1,6,6) occ(1,2,1) occ(1,9,10) occ(2,5,12) occ(3,7,1) coverage(136) occ(23,1,7) occ(46,1,10) occ(50,1,12) occ(54,1,8) occ(68,1,11) occ(77,1,6) occ(81,1,4) occ(117,1,2) occ(123,1,5) occ(127,1,9) occ(21,2,5) occ(44,2,12) occ(52,2,10) occ(66,2,9) occ(75,2,4) occ(83,2,2) occ(96,2,6) occ(104,2,8) occ(121,2,3) occ(125,2,7) occ(129,2,11) occ(14,3,2) occ(19,3,7) occ(25,3,8) occ(48,3,11) occ(56,3,9) occ(70,3,12) occ(79,3,5) occ(98,3,4) occ(102,3,6) occ(106,3,10) occ(115,3,3) occ(119,3,1) occ(12,4,4) occ(17,4,9) occ(42,4,11) occ(51,4,6) occ(64,4,10) occ(73,4,3) occ(85,4,1) occ(94,4,7) occ(108,4,8) occ(113,4,5) occ(131,4,12) occ(10,5,6) occ(16,5,3) occ(27,5,7) occ(53,5,4) occ(58,5,8) occ(71,5,1) occ(72,5,11) occ(92,5,9) occ(100,5,5) occ(133,5,10) occ(15,6,8) occ(18,6,1) occ(29,6,5) occ(40,6,10) occ(49,6,7) occ(62,6,11) occ(69,6,3) occ(87,6,2) occ(110,6,9) occ(111,6,4) occ(135,6,12) occ(4,7,11) occ(8,7,7) occ(38,7,12) occ(55,7,3) occ(60,7,9) occ(65,7,2) occ(74,7,10) occ(90,7,8) occ(91,7,5) occ(6,8,9) occ(13,8,7) occ(20,8,2) occ(31,8,6) occ(47,8,8) occ(57,8,1) occ(67,8,4) occ(76,8,12) occ(86,8,11) occ(89,8,3) occ(109,8,5) occ(112,8,10) occ(5,9,2) occ(11,9,5) occ(36,9,11) occ(39,9,7) occ(45,9,6) occ(59,9,3) occ(63,9,1) occ(88,9,9) occ(93,9,4) occ(114,9,8) occ(118,9,12) occ(9,10,3) occ(22,10,1) occ(33,10,5) occ(41,10,9) occ(78,10,11) occ(84,10,12) occ(99,10,2) occ(103,10,4) occ(107,10,6) occ(116,10,10) occ(124,10,8) occ(130,10,7) occ(7,11,1) occ(26,11,4) occ(30,11,8) occ(34,11,12) occ(37,11,6) occ(43,11,7) occ(61,11,2) occ(80,11,9) occ(95,11,3) occ(120,11,11) occ(128,11,5) occ(134,11,10) occ(24,12,2) occ(28,12,6) occ(32,12,10) occ(35,12,4) occ(82,12,11) occ(97,12,1) occ(101,12,3) occ(105,12,5) occ(122,12,9) occ(126,12,7) occ(132,12,8)
Optimization: -136
Answer: 14
occ(1,5,2) occ(1,6,6) occ(1,2,1) occ(1,9,10) occ(2,5,12) occ(3,7,1) coverage(137) occ(23,1,7) occ(46,1,10) occ(50,1,12) occ(54,1,8) occ(68,1,11) occ(77,1,6) occ(81,1,4) occ(117,1,2) occ(123,1,5) occ(127,1,9) occ(21,2,5) occ(44,2,12) occ(52,2,10) occ(66,2,9) occ(75,2,4) occ(83,2,2) occ(96,2,6) occ(104,2,8) occ(121,2,3) occ(125,2,7) occ(129,2,11) occ(14,3,2) occ(19,3,7) occ(25,3,8) occ(48,3,11) occ(56,3,9) occ(70,3,12) occ(79,3,5) occ(98,3,4) occ(102,3,6) occ(106,3,10) occ(115,3,3) occ(119,3,1) occ(12,4,4) occ(17,4,9) occ(42,4,11) occ(51,4,6) occ(64,4,10) occ(73,4,3) occ(85,4,1) occ(94,4,7) occ(108,4,8) occ(113,4,5) occ(131,4,12) occ(10,5,6) occ(16,5,3) occ(27,5,7) occ(53,5,4) occ(58,5,8) occ(71,5,1) occ(72,5,11) occ(92,5,9) occ(100,5,5) occ(133,5,10) occ(15,6,8) occ(18,6,1) occ(29,6,5) occ(40,6,10) occ(49,6,7) occ(62,6,11) occ(69,6,3) occ(87,6,2) occ(110,6,9) occ(111,6,4) occ(135,6,12) occ(4,7,11) occ(8,7,7) occ(38,7,12) occ(55,7,3) occ(60,7,9) occ(65,7,2) occ(74,7,10) occ(90,7,8) occ(91,7,5) occ(6,8,9) occ(13,8,7) occ(20,8,2) occ(31,8,6) occ(47,8,8) occ(57,8,1) occ(67,8,4) occ(76,8,12) occ(86,8,11) occ(89,8,3) occ(109,8,5) occ(112,8,10) occ(5,9,2) occ(11,9,5) occ(36,9,11) occ(39,9,7) occ(45,9,6) occ(59,9,3) occ(63,9,1) occ(88,9,9) occ(93,9,4) occ(114,9,8) occ(118,9,12) occ(9,10,3) occ(22,10,1) occ(33,10,5) occ(41,10,9) occ(78,10,11) occ(84,10,12) occ(99,10,2) occ(103,10,4) occ(107,10,6) occ(116,10,10) occ(124,10,8) occ(130,10,7) occ(7,11,1) occ(26,11,4) occ(30,11,8) occ(34,11,12) occ(37,11,6) occ(43,11,7) occ(61,11,2) occ(80,11,9) occ(95,11,3) occ(120,11,11) occ(128,11,5) occ(134,11,10) occ(24,12,2) occ(28,12,6) occ(32,12,10) occ(35,12,4) occ(82,12,11) occ(97,12,1) occ(101,12,3) occ(105,12,5) occ(122,12,9) occ(126,12,7) occ(132,12,8) occ(136,12,12)
Optimization: -137
Answer: 15
occ(1,5,2) occ(1,6,6) occ(1,2,1) occ(1,9,10) occ(2,5,12) occ(3,7,1) coverage(138) occ(23,1,7) occ(46,1,10) occ(50,1,12) occ(54,1,8) occ(72,1,11) occ(77,1,6) occ(81,1,4) occ(117,1,2) occ(123,1,5) occ(127,1,9) occ(21,2,5) occ(44,2,12) occ(52,2,10) occ(74,2,9) occ(75,2,4) occ(83,2,2) occ(96,2,6) occ(104,2,8) occ(121,2,3) occ(125,2,7) occ(129,2,11) occ(14,3,2) occ(19,3,7) occ(25,3,8) occ(48,3,11) occ(56,3,9) occ(70,3,12) occ(79,3,5) occ(98,3,4) occ(102,3,6) occ(106,3,10) occ(115,3,3) occ(119,3,1) occ(8,4,8) occ(12,4,4) occ(17,4,9) occ(27,4,6) occ(42,4,11) occ(73,4,3) occ(76,4,10) occ(85,4,1) occ(94,4,7) occ(113,4,5) occ(131,4,12) occ(10,5,6) occ(15,5,7) occ(16,5,3) occ(53,5,4) occ(58,5,8) occ(68,5,11) occ(71,5,1) occ(100,5,5) occ(108,5,9) occ(133,5,10) occ(6,6,9) occ(18,6,1) occ(29,6,5) occ(40,6,12) occ(49,6,7) occ(60,6,10) occ(69,6,3) occ(78,6,11) occ(87,6,2) occ(92,6,8) occ(111,6,4) occ(4,7,11) occ(13,7,6) occ(31,7,7) occ(51,7,5) occ(55,7,3) occ(62,7,8) occ(65,7,2) occ(66,7,12) occ(89,7,4) occ(110,7,10) occ(135,7,9) occ(20,8,2) occ(33,8,9) occ(38,8,11) occ(47,8,8) occ(57,8,1) occ(64,8,10) occ(67,8,4) occ(80,8,12) occ(90,8,7) occ(91,8,6) occ(109,8,5) occ(5,9,2) occ(11,9,5) occ(35,9,7) occ(59,9,3) occ(63,9,1) occ(88,9,9) occ(93,9,4) occ(112,9,11) occ(118,9,12) occ(126,9,6) occ(137,9,8) occ(9,10,3) occ(22,10,1) occ(30,10,7) occ(36,10,12) occ(37,10,5) occ(45,10,9) occ(82,10,11) occ(99,10,2) occ(103,10,4) occ(107,10,6) occ(116,10,10) occ(132,10,8) occ(7,11,1) occ(26,11,4) occ(32,11,9) occ(41,11,6) occ(61,11,2) occ(86,11,8) occ(95,11,3) occ(114,11,12) occ(120,11,11) occ(124,11,7) occ(128,11,5) occ(134,11,10) occ(24,12,2) occ(28,12,6) occ(34,12,11) occ(39,12,4) occ(43,12,8) occ(84,12,10) occ(97,12,1) occ(101,12,3) occ(105,12,5) occ(122,12,9) occ(130,12,7) occ(136,12,12)
Optimization: -138
*** Info : (clingo): INTERRUPTED by signal!
SATISFIABLE

TIME LIMIT   : 1
Models       : 15+
  Optimum    : unknown
Optimization : -138
Calls        : 1
Time         : 300.000s (Solving: 294.83s 1st Model: 0.01s Unsat: 0.00s)
CPU Time     : 300.001s
